100 100 100
50
89 20 79
51 100 65
81 7 88
39 49 17
89 79 24
95 37 92
90 18 67
100 28 84
70 38 73
12 98 81
41 67 78
76 30 90
80 67 64
93 37 68
94 88 14
87 39 71
83 72 5
66 35 81
99 38 87
90 44 98
83 95 15
99 31 74
98 42 78
78 41 70
36 87 72
91 42 81
49 22 23
84 59 67
90 32 84
94 59 67
96 30 85
9 100 81
98 73 25
73 22 79
70 33 93
43 84 73
70 3 82
99 4 82
98 73 60
92 32 93
97 86 44
73 15 68
23 39 34
82 34 87
86 43 86
74 54 53
69 5 71
95 39 89
98 48 92
100 48 77
